N = 8;
H = 5;
T = 2;

avail = array3d(1..N, 1..H, 1..T, [9, 5, 9, 2, 9, 10, 8, 4, 4, 6, 1, 3, 1, 2, 8, 3, 2, 6, 1, 9, 3, 7, 9, 10, 10, 10, 7, 2, 10, 9, 4, 2, 0, 4, 3, 7, 10, 1, 7, 4, 2, 8, 6, 6, 2, 10, 6, 0, 1, 6, 7, 5, 8, 4, 1, 0, 2, 1, 8, 1, 8, 0, 4, 1, 7, 9, 8, 4, 3, 8, 10, 8, 0, 5, 0, 1, 3, 4, 8, 3]);

r = array2d(1..H, 1..T, [4, 2, 0, 2, 3, 1, 2, 2, 3, 0]);
